50

97 0 292
97 14 291
90 23 270
89 39 298
89 4 293
89 5 300
85 24 272
83 15 265
82 23 292
81 7 289
77 38 235
76 25 238
76 26 283
75 24 265
71 35 223
71 8 261
68 31 256
68 17 269
66 24 268
63 13 269
63 23 220
63 2 226
62 22 289
61 11 296
61 22 272
59 27 289
58 13 217
54 22 285
53 18 265
50 5 243
50 9 289
50 6 283
46 4 287
43 1 241
40 18 247
36 1 200
36 17 134
33 11 286
32 0 298
31 10 209
31 3 148
31 0 169
28 0 207
27 6 267
27 2 131
26 3 81
26 9 185
24 3 246
23 5 256
22 8 212
